40
    99    38    34     9    87    68    44     8    83   100    59     8    52    57    48    48    88    20    54    71    13    19     2    22    75    40    92    51    54    19     3     9    55    50    94    52    12    75    99    38
     2     7     6     3     6     2     7     8     4     7     5     9     9    10     5     1     5     6     9     7     6     4     6     1    10     1     5     8     8     9     4     5     7     5     6     8     1     4     7     7
   956   600  1039   413   130   759    56   968   702   442   413   360   985     0   986   389   870  1005   507   290   135     0   929   567   627   667   648     0     0    93   989   234  1137   680   989  1121   655   639   760     0
